(declare-fun var0 () String)
(assert (RegexIn var0 (RegexConcat (RegexUnion (RegexStar (Str2Reg "\"\"\"")) (RegexPlus (Str2Reg "#"))) (RegexConcat (RegexStar (RegexUnion (Str2Reg "Z") (Str2Reg "!"))) (RegexConcat (RegexPlus (RegexUnion (Str2Reg "XXX") (Str2Reg "Y"))) (RegexConcat (RegexPlus (RegexStar (Str2Reg "WWW"))) (RegexConcat (RegexStar (RegexUnion (Str2Reg "UU") (Str2Reg "V"))) (RegexConcat (RegexStar (RegexPlus (Str2Reg "T"))) (RegexConcat (RegexStar (RegexUnion (Str2Reg "RRR") (Str2Reg "SSS"))) (RegexConcat (RegexStar (RegexStar (Str2Reg "QQQ"))) (RegexConcat (RegexPlus (RegexPlus (Str2Reg "PP"))) (RegexConcat (RegexStar (RegexUnion (Str2Reg "NNN") (Str2Reg "OO"))) (RegexConcat (RegexStar (RegexPlus (Str2Reg "MMM"))) (RegexConcat (RegexStar (RegexUnion (Str2Reg "K") (Str2Reg "LLL"))) (RegexConcat (RegexStar (RegexUnion (Str2Reg "III") (Str2Reg "J"))) (RegexConcat (RegexPlus (RegexStar (Str2Reg "HHH"))) (RegexConcat (RegexStar (RegexPlus (Str2Reg "G"))) (RegexConcat (RegexStar (RegexUnion (Str2Reg "EEE") (Str2Reg "FF"))) (RegexConcat (RegexPlus (RegexUnion (Str2Reg "CCC") (Str2Reg "DDD"))) (RegexConcat (RegexPlus (RegexUnion (Str2Reg "AA") (Str2Reg "BBB"))) (RegexConcat (RegexStar (RegexUnion (Str2Reg "y") (Str2Reg "zz"))) (RegexConcat (RegexPlus (RegexUnion (Str2Reg "ww") (Str2Reg "xxx"))) (RegexConcat (RegexStar (RegexPlus (Str2Reg "vv"))) (RegexConcat (RegexPlus (RegexUnion (Str2Reg "t") (Str2Reg "uuu"))) (RegexConcat (RegexUnion (RegexUnion (Str2Reg "pp") (Str2Reg "qqq")) (RegexUnion (Str2Reg "rr") (Str2Reg "sss"))) (RegexConcat (RegexPlus (RegexPlus (Str2Reg "o"))) (RegexConcat (RegexUnion (RegexStar (Str2Reg "mmm")) (RegexPlus (Str2Reg "n"))) (RegexConcat (RegexStar (RegexUnion (Str2Reg "kk") (Str2Reg "l"))) (RegexConcat (RegexStar (RegexUnion (Str2Reg "iii") (Str2Reg "j"))) (RegexConcat (RegexUnion (RegexPlus (Str2Reg "ff")) (RegexUnion (Str2Reg "gg") (Str2Reg "h"))) (RegexConcat (RegexStar (RegexStar (Str2Reg "ee"))) (RegexConcat (RegexUnion (RegexStar (Str2Reg "bbb")) (RegexUnion (Str2Reg "ccc") (Str2Reg "ddd"))) (RegexConcat (RegexStar (RegexStar (Str2Reg "aa"))) (RegexConcat (RegexUnion (RegexStar (Str2Reg "888")) (RegexStar (Str2Reg "999"))) (RegexConcat (RegexStar (RegexUnion (Str2Reg "6") (Str2Reg "777"))) (RegexConcat (RegexStar (RegexUnion (Str2Reg "44") (Str2Reg "55"))) (RegexConcat (RegexPlus (RegexStar (Str2Reg "33"))) (RegexConcat (RegexUnion (RegexStar (Str2Reg "11")) (RegexPlus (Str2Reg "222"))) (RegexConcat (RegexStar (RegexStar (Str2Reg "00"))) (RegexConcat (RegexStar (RegexUnion (Str2Reg "}}") (Str2Reg "~~~"))) (RegexConcat (RegexUnion (RegexPlus (Str2Reg "{{")) (RegexStar (Str2Reg "||"))) (RegexConcat (RegexStar (RegexPlus (Str2Reg "```"))) (RegexConcat (RegexUnion (RegexStar (Str2Reg "^")) (RegexStar (Str2Reg "_"))) (RegexConcat (RegexUnion (RegexStar (Str2Reg "\\\\\\")) (RegexPlus (Str2Reg "]]"))) (RegexConcat (RegexPlus (RegexUnion (Str2Reg "@@@") (Str2Reg "[["))) (RegexConcat (RegexStar (RegexUnion (Str2Reg ">>") (Str2Reg "?"))) (RegexConcat (RegexPlus (RegexPlus (Str2Reg "==="))) (RegexConcat (RegexPlus (RegexStar (Str2Reg "<<<"))) (RegexConcat (RegexUnion (RegexStar (Str2Reg ":::")) (RegexStar (Str2Reg ";;"))) (RegexConcat (RegexUnion (RegexStar (Str2Reg ".")) (RegexStar (Str2Reg "/"))) (RegexConcat (RegexPlus (RegexPlus (Str2Reg "---"))) (RegexConcat (RegexPlus (RegexStar (Str2Reg ",,"))) (RegexConcat (RegexUnion (RegexUnion (Str2Reg "((") (Str2Reg ")")) (RegexUnion (Str2Reg "*") (Str2Reg "+"))) (RegexConcat (RegexStar (RegexStar (Str2Reg "'"))) (RegexConcat (RegexUnion (RegexUnion (Str2Reg "$$") (Str2Reg "%")) (RegexStar (Str2Reg "&&&"))) (RegexConcat (RegexPlus (RegexStar (Str2Reg "#"))) (RegexConcat (RegexUnion (RegexPlus (Str2Reg "ZZ")) (RegexUnion (Str2Reg "!!!") (Str2Reg "\"\""))) (RegexConcat (RegexUnion (RegexPlus (Str2Reg "XXX")) (RegexStar (Str2Reg "YYY"))) (RegexConcat (RegexPlus (RegexStar (Str2Reg "W"))) (RegexConcat (RegexPlus (RegexPlus (Str2Reg "VVV"))) (RegexConcat (RegexStar (RegexUnion (Str2Reg "TT") (Str2Reg "UU"))) (RegexConcat (RegexStar (RegexUnion (Str2Reg "RR") (Str2Reg "S"))) (RegexConcat (RegexPlus (RegexStar (Str2Reg "Q"))) (RegexConcat (RegexStar (RegexStar (Str2Reg "PP"))) (RegexConcat (RegexStar (RegexStar (Str2Reg "OOO"))) (RegexConcat (RegexUnion (RegexPlus (Str2Reg "LL")) (RegexUnion (Str2Reg "MMM") (Str2Reg "NNN"))) (RegexConcat (RegexUnion (RegexUnion (Str2Reg "HH") (Str2Reg "II")) (RegexUnion (Str2Reg "JJ") (Str2Reg "KK"))) (RegexConcat (RegexStar (RegexStar (Str2Reg "GGG"))) (RegexConcat (RegexStar (RegexUnion (Str2Reg "EE") (Str2Reg "F"))) (RegexConcat (RegexStar (RegexStar (Str2Reg "DD"))) (RegexConcat (RegexUnion (RegexUnion (Str2Reg "A") (Str2Reg "BBB")) (RegexStar (Str2Reg "C"))) (RegexConcat (RegexUnion (RegexPlus (Str2Reg "yyy")) (RegexPlus (Str2Reg "zzz"))) (RegexConcat (RegexStar (RegexStar (Str2Reg "xxx"))) (RegexConcat (RegexUnion (RegexUnion (Str2Reg "uu") (Str2Reg "vvv")) (RegexPlus (Str2Reg "w"))) (RegexConcat (RegexPlus (RegexPlus (Str2Reg "tt"))) (RegexConcat (RegexUnion (RegexUnion (Str2Reg "qq") (Str2Reg "r")) (RegexStar (Str2Reg "sss"))) (RegexConcat (RegexPlus (RegexStar (Str2Reg "pp"))) (RegexConcat (RegexPlus (RegexUnion (Str2Reg "nn") (Str2Reg "o"))) (RegexConcat (RegexStar (RegexStar (Str2Reg "mmm"))) (RegexConcat (RegexPlus (RegexUnion (Str2Reg "kk") (Str2Reg "l"))) (RegexConcat (RegexStar (RegexPlus (Str2Reg "jjj"))) (RegexConcat (RegexUnion (RegexPlus (Str2Reg "g")) (RegexUnion (Str2Reg "hhh") (Str2Reg "i"))) (RegexConcat (RegexPlus (RegexStar (Str2Reg "ff"))) (RegexConcat (RegexStar (RegexUnion (Str2Reg "dd") (Str2Reg "ee"))) (RegexConcat (RegexStar (RegexUnion (Str2Reg "bbb") (Str2Reg "c"))) (RegexConcat (RegexUnion (RegexPlus (Str2Reg "999")) (RegexStar (Str2Reg "a"))) (RegexConcat (RegexStar (RegexStar (Str2Reg "88"))) (RegexConcat (RegexStar (RegexPlus (Str2Reg "7"))) (RegexConcat (RegexStar (RegexUnion (Str2Reg "55") (Str2Reg "666"))) (RegexConcat (RegexPlus (RegexPlus (Str2Reg "44"))) (RegexConcat (RegexStar (RegexStar (Str2Reg "3"))) (RegexConcat (RegexPlus (RegexUnion (Str2Reg "11") (Str2Reg "2"))) (RegexConcat (RegexPlus (RegexUnion (Str2Reg "~~") (Str2Reg "0"))) (RegexConcat (RegexUnion (RegexStar (Str2Reg "{")) (RegexUnion (Str2Reg "||") (Str2Reg "}}"))) (RegexConcat (RegexUnion (RegexPlus (Str2Reg "^^")) (RegexUnion (Str2Reg "_") (Str2Reg "``"))) (RegexConcat (RegexPlus (RegexUnion (Str2Reg "\\") (Str2Reg "]]]"))) (RegexConcat (RegexStar (RegexUnion (Str2Reg "@@") (Str2Reg "[["))) (RegexConcat (RegexUnion (RegexPlus (Str2Reg ">>>")) (RegexStar (Str2Reg "???"))) (RegexConcat (RegexUnion (RegexStar (Str2Reg ";;")) (RegexUnion (Str2Reg "<<") (Str2Reg "="))) (RegexConcat (RegexUnion (RegexUnion (Str2Reg "-") (Str2Reg ".")) (RegexUnion (Str2Reg "/") (Str2Reg ":"))) (RegexConcat (RegexUnion (RegexUnion (Str2Reg ")") (Str2Reg "**")) (RegexUnion (Str2Reg "+++") (Str2Reg ",,"))) (RegexConcat (RegexUnion (RegexPlus (Str2Reg "'''")) (RegexPlus (Str2Reg "("))) (RegexConcat (RegexStar (RegexPlus (Str2Reg "&"))) (RegexConcat (RegexUnion (RegexUnion (Str2Reg "\"\"") (Str2Reg "##")) (RegexUnion (Str2Reg "$$$") (Str2Reg "%"))) (RegexConcat (RegexPlus (RegexUnion (Str2Reg "Z") (Str2Reg "!!!"))) (RegexConcat (RegexPlus (RegexStar (Str2Reg "YY"))) (RegexConcat (RegexPlus (RegexStar (Str2Reg "X"))) (RegexConcat (RegexStar (RegexStar (Str2Reg "WWW"))) (RegexConcat (RegexUnion (RegexPlus (Str2Reg "UU")) (RegexPlus (Str2Reg "V"))) (RegexConcat (RegexStar (RegexPlus (Str2Reg "TT"))) (RegexConcat (RegexPlus (RegexStar (Str2Reg "S"))) (RegexConcat (RegexUnion (RegexPlus (Str2Reg "PP")) (RegexUnion (Str2Reg "QQQ") (Str2Reg "RRR"))) (RegexConcat (RegexStar (RegexStar (Str2Reg "O"))) (RegexConcat (RegexPlus (RegexPlus (Str2Reg "N"))) (RegexConcat (RegexPlus (RegexUnion (Str2Reg "LLL") (Str2Reg "M"))) (RegexConcat (RegexStar (RegexPlus (Str2Reg "KKK"))) (RegexConcat (RegexStar (RegexPlus (Str2Reg "JJ"))) (RegexConcat (RegexUnion (RegexPlus (Str2Reg "H")) (RegexStar (Str2Reg "III"))) (RegexConcat (RegexPlus (RegexStar (Str2Reg "G"))) (RegexConcat (RegexUnion (RegexStar (Str2Reg "EEE")) (RegexPlus (Str2Reg "FF"))) (RegexConcat (RegexPlus (RegexStar (Str2Reg "D"))) (RegexConcat (RegexPlus (RegexStar (Str2Reg "CCC"))) (RegexConcat (RegexStar (RegexStar (Str2Reg "B"))) (RegexConcat (RegexStar (RegexStar (Str2Reg "AAA"))) (RegexConcat (RegexStar (RegexStar (Str2Reg "zzz"))) (RegexConcat (RegexUnion (RegexPlus (Str2Reg "xx")) (RegexStar (Str2Reg "yyy"))) (RegexConcat (RegexStar (RegexStar (Str2Reg "www"))) (RegexConcat (RegexUnion (RegexStar (Str2Reg "tt")) (RegexUnion (Str2Reg "uu") (Str2Reg "vvv"))) (RegexConcat (RegexUnion (RegexPlus (Str2Reg "qqq")) (RegexUnion (Str2Reg "r") (Str2Reg "ss"))) (RegexConcat (RegexStar (RegexPlus (Str2Reg "p"))) (RegexConcat (RegexPlus (RegexPlus (Str2Reg "ooo"))) (RegexConcat (RegexUnion (RegexPlus (Str2Reg "l")) (RegexUnion (Str2Reg "mm") (Str2Reg "nnn"))) (RegexConcat (RegexStar (RegexUnion (Str2Reg "jj") (Str2Reg "k"))) (RegexConcat (RegexUnion (RegexStar (Str2Reg "h")) (RegexPlus (Str2Reg "ii"))) (RegexConcat (RegexPlus (RegexPlus (Str2Reg "g"))) (RegexConcat (RegexUnion (RegexPlus (Str2Reg "ee")) (RegexStar (Str2Reg "ff"))) (RegexConcat (RegexPlus (RegexStar (Str2Reg "ddd"))) (RegexConcat (RegexUnion (RegexStar (Str2Reg "bbb")) (RegexPlus (Str2Reg "cc"))) (RegexConcat (RegexStar (RegexUnion (Str2Reg "99") (Str2Reg "aaa"))) (RegexConcat (RegexPlus (RegexPlus (Str2Reg "88"))) (RegexConcat (RegexUnion (RegexPlus (Str2Reg "5")) (RegexUnion (Str2Reg "66") (Str2Reg "7"))) (RegexConcat (RegexUnion (RegexUnion (Str2Reg "1") (Str2Reg "22")) (RegexUnion (Str2Reg "3") (Str2Reg "4"))) (RegexConcat (RegexStar (RegexPlus (Str2Reg "00"))) (RegexConcat (RegexUnion (RegexUnion (Str2Reg "|||") (Str2Reg "}}}")) (RegexPlus (Str2Reg "~~"))) (RegexConcat (RegexUnion (RegexUnion (Str2Reg "__") (Str2Reg "``")) (RegexStar (Str2Reg "{{"))) (RegexConcat (RegexPlus (RegexUnion (Str2Reg "]") (Str2Reg "^"))) (RegexConcat (RegexPlus (RegexPlus (Str2Reg "\\\\\\"))) (RegexConcat (RegexStar (RegexPlus (Str2Reg "["))) (RegexConcat (RegexUnion (RegexPlus (Str2Reg ">")) (RegexUnion (Str2Reg "???") (Str2Reg "@@@"))) (RegexConcat (RegexPlus (RegexUnion (Str2Reg "<") (Str2Reg "="))) (RegexConcat (RegexStar (RegexPlus (Str2Reg ";;;"))) (RegexConcat (RegexUnion (RegexPlus (Str2Reg "///")) (RegexStar (Str2Reg ":"))) (RegexConcat (RegexPlus (RegexPlus (Str2Reg "."))) (RegexConcat (RegexStar (RegexPlus (Str2Reg "-"))) (RegexConcat (RegexUnion (RegexPlus (Str2Reg "**")) (RegexUnion (Str2Reg "+++") (Str2Reg ",,"))) (RegexConcat (RegexUnion (RegexStar (Str2Reg "((")) (RegexPlus (Str2Reg ")"))) (RegexConcat (RegexPlus (RegexStar (Str2Reg "'''"))) (RegexConcat (RegexUnion (RegexStar (Str2Reg "%%")) (RegexStar (Str2Reg "&&"))) (RegexConcat (RegexPlus (RegexUnion (Str2Reg "###") (Str2Reg "$"))) (RegexConcat (RegexStar (RegexUnion (Str2Reg "!") (Str2Reg "\""))) (RegexConcat (RegexPlus (RegexPlus (Str2Reg "ZZZ"))) (RegexConcat (RegexUnion (RegexUnion (Str2Reg "W") (Str2Reg "XX")) (RegexPlus (Str2Reg "YYY"))) (RegexConcat (RegexPlus (RegexPlus (Str2Reg "VVV"))) (RegexConcat (RegexUnion (RegexUnion (Str2Reg "RR") (Str2Reg "S")) (RegexUnion (Str2Reg "T") (Str2Reg "UU"))) (RegexConcat (RegexPlus (RegexUnion (Str2Reg "PP") (Str2Reg "QQ"))) (RegexConcat (RegexStar (RegexUnion (Str2Reg "NN") (Str2Reg "O"))) (RegexConcat (RegexPlus (RegexStar (Str2Reg "M"))) (RegexConcat (RegexPlus (RegexUnion (Str2Reg "KKK") (Str2Reg "L"))) (RegexConcat (RegexPlus (RegexPlus (Str2Reg "JJJ"))) (RegexConcat (RegexPlus (RegexPlus (Str2Reg "III"))) (RegexConcat (RegexUnion (RegexPlus (Str2Reg "GG")) (RegexStar (Str2Reg "HH"))) (RegexConcat (RegexUnion (RegexUnion (Str2Reg "DDD") (Str2Reg "EEE")) (RegexStar (Str2Reg "F"))) (RegexConcat (RegexUnion (RegexStar (Str2Reg "B")) (RegexStar (Str2Reg "C"))) (RegexConcat (RegexPlus (RegexStar (Str2Reg "AAA"))) (RegexConcat (RegexStar (RegexUnion (Str2Reg "yyy") (Str2Reg "zz"))) (RegexConcat (RegexUnion (RegexStar (Str2Reg "vv")) (RegexUnion (Str2Reg "ww") (Str2Reg "xxx"))) (RegexConcat (RegexUnion (RegexUnion (Str2Reg "s") (Str2Reg "tt")) (RegexStar (Str2Reg "uuu"))) (RegexConcat (RegexPlus (RegexPlus (Str2Reg "r"))) (RegexConcat (RegexPlus (RegexUnion (Str2Reg "p") (Str2Reg "qq"))) (RegexConcat (RegexUnion (RegexUnion (Str2Reg "mmm") (Str2Reg "n")) (RegexStar (Str2Reg "ooo"))) (RegexConcat (RegexUnion (RegexPlus (Str2Reg "k")) (RegexStar (Str2Reg "l"))) (RegexConcat (RegexPlus (RegexUnion (Str2Reg "i") (Str2Reg "j"))) (RegexConcat (RegexUnion (RegexStar (Str2Reg "fff")) (RegexUnion (Str2Reg "gg") (Str2Reg "hh"))) (RegexConcat (RegexStar (RegexPlus (Str2Reg "eee"))) (RegexConcat (RegexStar (RegexPlus (Str2Reg "ddd"))) (RegexConcat (RegexStar (RegexPlus (Str2Reg "cc"))) (RegexConcat (RegexUnion (RegexPlus (Str2Reg "999")) (RegexUnion (Str2Reg "aaa") (Str2Reg "bb"))) (RegexConcat (RegexUnion (RegexStar (Str2Reg "7")) (RegexStar (Str2Reg "88"))) (RegexConcat (RegexUnion (RegexPlus (Str2Reg "44")) (RegexUnion (Str2Reg "5") (Str2Reg "666"))) (RegexConcat (RegexUnion (RegexPlus (Str2Reg "222")) (RegexStar (Str2Reg "333"))) (RegexConcat (RegexPlus (RegexPlus (Str2Reg "11"))) (RegexPlus (RegexStar (Str2Reg "000"))))))))))))))))))))))))))))))))))))))))))))))))))))))))))))))))))))))))))))))))))))))))))))))))))))))))))))))))))))))))))))))))))))))))))))))))))))))))))))))))))))))))))))))))))))))))))))))))))
(check-sat)